p td 120 121 
83 69
83 88
118 17
84 75
87 4
87 65
87 111
5 106
5 107
11 48
11 66
11 97
11 111
68 20
60 65
95 48
95 67
95 75
95 117
95 119
86 37
86 108
49 12
49 35
39 16
39 111
70 56
99 117
42 30
42 71
42 90
64 37
115 4
115 69
115 100
115 119
24 25
24 71
24 76
1 4
14 69
14 71
112 28
77 30
77 52
77 66
77 105
8 46
8 50
8 106
113 6
113 38
113 106
3 38
3 65
3 69
3 108
3 111
13 32
13 47
13 58
93 30
93 35
93 82
44 17
44 100
9 67
9 71
9 100
79 12
79 107
40 32
40 119
59 57
19 47
18 32
78 20
36 32
36 45
92 52
31 45
31 46
31 56
31 71
31 120
85 25
23 26
114 69
114 103
54 7
54 91
104 4
104 32
104 67
63 4
63 27
63 45
63 50
63 88
10 4
98 32
98 72
98 106
101 35
101 75
21 15
81 48
81 61
81 69
109 4
109 43
109 88
109 90
102 7
102 91
55 82
55 94
41 17
41 76
33 57
33 69
